120
150
54
99
48
62
94
48
85
56
51
28
54
96
71
48
100
90
39
27
95
20
25
49
36
55
36
90
95
72
55
27
88
56
99
85
62
69
81
84
99
49
38
27
24
44
95
85
51
55
43
43
44
100
36
30
49
24
60
51
41
64
59
53
35
56
72
100
71
22
75
53
97
66
37
84
49
99
25
53
82
22
59
66
51
55
25
66
22
27
51
99
64
58
82
22
78
66
51
27
88
90
66
98
62
97
85
20
30
30
38
20
51
81
53
84
46
64
69
66
62
88
